DIMENSION: 6
NODE_COORD_SECTION
4 236.8916797488 61.2550374208
5 -3.6269430052 -199.4572591588
2 -267.5057208238 399.1636798088
3 9024.3243243243 1167.8832116788
6 -762.4713958810 724.0875912409
1 -379.8882681564 6.7664281067
